
Gurobi 9.1.2 (win64, Java) logging started Sat Nov  6 09:45:19 2021

Academic license - for non-commercial use only - expires 2022-10-30
Gurobi Optimizer version 9.1.2 build v9.1.2rc0 (win64)
Thread count: 6 physical cores, 12 logical processors, using up to 12 threads
Optimize a model with 30 rows, 200 columns and 400 nonzeros
Model fingerprint: 0x4849f8ca
Variable types: 0 continuous, 200 integer (200 binary)
Coefficient statistics:
  Matrix range     [1e+00, 1e+03]
  Objective range  [4e+02, 1e+03]
  Bounds range     [1e+00, 1e+00]
  RHS range        [1e+00, 9e+02]
Found heuristic solution: objective 7736.0000000
Presolve removed 6 rows and 121 columns
Presolve time: 0.00s
Presolved: 24 rows, 79 columns, 158 nonzeros
Variable types: 0 continuous, 79 integer (79 binary)
Presolved: 24 rows, 79 columns, 158 nonzeros


Root relaxation: objective 1.025481e+04, 54 iterations, 0.00 seconds

    Nodes    |    Current Node    |     Objective Bounds      |     Work
 Expl Unexpl |  Obj  Depth IntInf | Incumbent    BestBd   Gap | It/Node Time

     0     0 10254.8104    0    8 7736.00000 10254.8104  32.6%     -    0s
H    0     0                    9221.0000000 10254.8104  11.2%     -    0s
H    0     0                    9325.0000000 10254.8104  10.0%     -    0s
     0     0     cutoff    0      9325.00000 9325.00000  0.00%     -    0s

Cutting planes:
  Gomory: 5
  Cover: 3
  Clique: 2
  MIR: 3
  StrongCG: 2
  RLT: 1

Explored 1 nodes (78 simplex iterations) in 0.03 seconds
Thread count was 12 (of 12 available processors)

Solution count 3: 9325 9221 7736 

Optimal solution found (tolerance 1.00e-04)
Best objective 9.325000000000e+03, best bound 9.325000000000e+03, gap 0.0000%
